100
37 4
5 0
37 0
5 3
31 0
29 4
7 3
41 4
20 2
31 1
15 3
9 3
0 0
16 3
26 4
18 0
2 4
14 4
13 4
0 3
8 0
26 0
23 3
7 4
19 2
14 3
9 2
21 3
27 0
28 4
44 0
6 0
10 4
1 2
32 1
21 4
25 0
6 3
16 0
1 4
40 0
42 0
29 0
17 4
24 0
0 1
27 4
32 4
33 4
25 1
6 1
2 0
22 3
12 4
5 4
8 3
42 4
43 0
3 2
31 2
36 3
36 4
31 4
2 3
41 0
30 0
3 4
20 0
27 3
26 2
18 3
38 4
19 0
7 0
28 1
15 0
6 4
10 0
28 0
32 3
38 0
23 1
3 0
34 1
22 2
7 1
32 2
34 4
36 2
37 3
18 4
21 0
22 4
33 0
39 3
42 3
2 1
11 0
11 3
11 1

